r = [
0,9,7,5,9,1,10,5,1,11,11,0
];
p = [
0,7,5,17,2,30,12,10,13,5,13,0
];
e = [
0,13,15,15,7,12,19,11,17,9,7,0
];
d = [
0,150,143,69,130,101,140,121,69,162,139,167
];
d_bar = [
0,156,148,84,132,128,151,130,81,167,151,167
];
w = [
0,2.166666667,3,1,3.5,0.444444444,1.727272727,1.222222222,1.416666667,1.8,0.583333333,0
];
